CPLEX Parameter File Version 22.1.0.0
CPXPARAM_MIP_Cuts_LocalImplied -1
CPXPARAM_MIP_Cuts_Cliques -1
CPXPARAM_MIP_Cuts_Covers -1
CPXPARAM_MIP_Cuts_Disjunctive -1
CPXPARAM_MIP_Cuts_LiftProj -1
CPXPARAM_MIP_Cuts_Implied -1
CPXPARAM_MIP_Cuts_BQP -1
CPXPARAM_MIP_Cuts_FlowCovers -1
CPXPARAM_MIP_Cuts_PathCut -1
CPXPARAM_MIP_Cuts_Gomory -1
CPXPARAM_MIP_Cuts_GUBCovers 2
CPXPARAM_MIP_Cuts_MIRCut -1
CPXPARAM_MIP_Cuts_RLT -1
CPXPARAM_MIP_Cuts_ZeroHalfCut -1
CPXPARAM_MIP_Cuts_MCFCut -1
CPX_PARAM_HEURFREQ -1
CPX_PARAM_PREIND 0
CPX_PARAM_RELAXPREIND 0
CPX_PARAM_PREPASS 0
CPX_PARAM_REDUCE 0